clingo version 5.2.2
Reading from ...r180_u540_o12_N010_encoding-a_minSP.lp ...
Solving...
Solving...
Solving...
Solving...
Solving...
Solving...
Solving...
Solving...
Solving...
Solving...
Solving...
Solving...
Solving...
Solving...
Solving...
Solving...
Solving...
Solving...
Solving...
Solving...
Solving...
Solving...
Solving...
Solving...
Solving...
Solving...
Solving...
Solving...
Solving...
Solving...
Solving...
Solving...
Solving...
Solving...
Solving...
Solving...
Solving...
Solving...
Solving...
Solving...
Solving...
Solving...
Solving...
Solving...
Solving...
Solving...
Solving...
Solving...
Solving...
Solving...
Solving...
Solving...
Solving...
Solving...
Solving...
Solving...
Solving...
Solving...
Solving...
Solving...
Solving...
Solving...
Solving...
Solving...
Solving...
Solving...
Solving...
Solving...
Solving...
Solving...
Solving...
Solving...
Solving...
Solving...
Solving...
Solving...
Solving...
Solving...
Solving...
Solving...
Solving...
Solving...
Solving...
Solving...
Solving...
Solving...
Solving...
Solving...
Solving...
Solving...
Solving...
Solving...
Solving...
Solving...
Solving...
Solving...
Solving...
Solving...
Solving...
Solving...
Solving...
Solving...
Solving...
Solving...
Solving...
Solving...
Solving...
Solving...
Solving...
Solving...
Solving...
Solving...
Solving...
Solving...
Solving...
Solving...
Solving...
Solving...
Solving...
Solving...
Solving...
Solving...
Solving...
Solving...
Solving...
Solving...
Solving...
Solving...
Solving...
Solving...
Solving...
Solving...
Solving...
Solving...
Solving...
Solving...
Solving...
Solving...
Solving...
Solving...
Solving...
Solving...
Solving...
Solving...
Solving...
Solving...
Solving...
Solving...
Solving...
Solving...
Solving...
Solving...
Solving...
Solving...
Solving...
Solving...
Solving...
Solving...
Solving...
Solving...
Solving...
Solving...
Solving...
Solving...
Solving...
Solving...
Solving...
Solving...
Solving...
Solving...
Solving...
Solving...
Solving...
Solving...
Solving...
Solving...
Solving...
Solving...
Solving...
Solving...
Solving...
Solving...
Solving...
Solving...
Solving...
Solving...
Solving...
Solving...
Solving...
Solving...
Solving...
Solving...
Solving...
Solving...
Solving...
UNKNOWN

TIME LIMIT   : 1
Models       : 0+
Calls        : 196
Time         : 1799.930s (Solving: 55.06s 1st Model: 0.00s Unsat: 55.06s)
CPU Time     : 655.464s

Choices      : 11030   
Conflicts    : 7676     (Analyzed: 7500)
Restarts     : 12       (Average: 625.00 Last: 62)
Problems     : 197      (Average Length: 2.00 Splits: 0)
Lemmas       : 7500     (Deleted: 0)
  Binary     : 409      (Ratio:   5.45%)
  Ternary    : 988      (Ratio:  13.17%)
  Conflict   : 7500     (Average Length:    8.8 Ratio: 100.00%) 
  Loop       : 0        (Average Length:    0.0 Ratio:   0.00%) 
  Other      : 0        (Average Length:    0.0 Ratio:   0.00%) 
Backjumps    : 7500     (Average:  1.53 Max: 198 Sum:  11510)
  Executed   : 6971     (Average:  1.46 Max: 198 Sum:  10977 Ratio:  95.37%)
  Bounded    : 529      (Average:  1.01 Max:   2 Sum:    533 Ratio:   4.63%)

Rules        : 23094508 (Original: 19798249)
  Choice     : 1358    
Atoms        : 8309640  (Original: 7752168 Auxiliary: 557472)
Bodies       : 19218497 (Original: 16508438)
  Count      : 35310    (Original: 94411)
Equivalences : 17998929 (Atom=Atom: 5580043 Body=Body: 58407 Other: 12360479)
Tight        : Yes
Variables    : 3552423  (Eliminated:    0 Frozen: 545101)
Constraints  : 13797923 (Binary:  69.7% Ternary:  27.4% Other:   2.9%)

